
  12    4
  10   10   10   10

   0   0   0   0   0   3 2 3 4 
   2  10  10  10  10   2 6 5 
   6  10  10  10  10   2 11 6 
   6  10  10  10  10   2 7 5 
   9  10  10  10  10   3 11 10 8 
   4  10  10  10  10   1 7 
   4  10  10  10  10   2 10 8 
   9  10  10  10  10   1 9 
   9  10  10  10  10   1 12
   6  10  10  10  10   1 12
   5  10  10  10  10   1 12
   0   0   0   0   0   0 
